4 10 18 15 6 17 8 14 11 12 5 7 9 13 2 1 0 19 16 3  
4 10 18 14 6 15 17 8 11 12 5 9 19 7 2 1 0 13 16 3  
4 10 18 14 6 11 17 8 15 12 0 9 19 16 5 2 13 1 7 3  
4 10 18 14 6 11 17 8 15 12 0 9 19 16 5 2 13 1 7 3  
4 10 18 14 6 11 17 8 15 12 0 7 16 5 9 13 2 1 3 19  
4 10 18 14 6 11 17 8 15 0 12 9 19 16 5 2 13 7 1 3  
4 10 18 14 6 11 17 8 15 12 0 9 19 16 5 13 2 1 7 3  
4 10 18 14 6 11 17 8 15 0 12 9 19 16 5 2 13 7 3 1  
4 10 18 14 6 11 0 8 15 17 12 9 19 16 5 2 13 7 1 3  
4 10 6 15 18 17 8 14 11 12 5 7 9 13 2 1 0 19 16 3  
4 10 18 14 6 11 17 8 15 0 12 9 19 16 5 2 13 7 3 1  
4 10 18 14 6 11 17 8 15 0 12 9 19 16 5 2 13 7 3 1  
4 10 18 14 6 11 17 8 15 16 5 9 19 0 1 7 2 13 12 3  
4 10 18 14 6 15 17 8 11 12 5 9 19 7 2 1 0 13 16 3  
4 10 18 14 6 11 15 17 8 12 5 9 19 0 1 7 2 13 16 3  
4 15 6 10 18 17 8 14 11 12 0 16 5 7 9 13 2 1 3 19  
4 10 18 14 6 11 17 8 15 12 0 9 19 16 5 2 13 1 7 3  
4 10 18 14 6 15 17 8 11 12 0 9 19 16 5 2 7 3 1 13  
4 10 18 14 6 11 17 8 15 7 16 5 9 19 2 13 12 0 1 3  
4 10 18 14 6 11 17 8 15 16 5 9 13 2 19 12 0 1 7 3  
4 10 6 18 15 17 8 14 11 12 5 9 13 2 19 16 0 1 7 3  
4 10 18 14 6 11 17 8 15 0 12 9 19 16 5 13 2 1 7 3  
4 10 18 14 6 11 17 8 15 0 12 9 19 16 5 2 13 7 3 1  
4 10 18 14 6 15 0 8 11 7 16 5 9 19 2 13 12 17 1 3  
4 10 6 18 15 17 8 14 11 12 5 9 19 2 0 1 7 13 16 3  
4 10 18 14 6 15 17 8 11 16 5 9 19 7 2 1 0 13 12 3  
